n_res = 4;
rc = [ 15, 17, 17, 17 ];
n_tasks = 15;
d = [ 6, 1, 8, 8, 225, 200, 150, 125, 25, 200, 100, 3, 1, 3, 1 ];
rr = [| 8, 5, 1, 6, 1, 3, 9, 3, 9, 1, 2, 2, 3, 5, 3
      | 4, 1, 4, 2, 2, 5, 4, 3, 5, 10, 3, 1, 9, 2, 10
      | 7, 5, 1, 1, 8, 1, 9, 3, 3, 4, 7, 10, 1, 6, 10
      | 7, 1, 3, 9, 6, 7, 6, 4, 1, 6, 10, 6, 3, 6, 8 |];
suc = [ { 4 },
       { 6, 11, 15 },
       { 7, 8 },
       { 5, 9 },
       { 6, 12 },
       {  },
       { 13 },
       { 10 },
       { 14 },
       {  },
       {  },
       {  },
       {  },
       {  },
       {  } ];
